; TODO try replacing this with int
(declare-datatype nat ((zero) (s (s_0 nat))))
(declare-datatype tree (par (a) ((Leaf) (Node (Node_0 (tree a)) (Node_1 a) (Node_2 (tree a))))))
(declare-fun plus (nat nat) nat)
(assert (forall ((x nat)) (= (plus zero x) x)))
(assert (forall ((x nat) (y nat)) (= (plus (s x) y) (s (plus x y)))))
(declare-fun minus (nat nat) nat)
(assert (forall ((n nat)) (= (minus zero n) zero) ))
(assert (forall ((n nat)) (= (minus n zero) n) ))
(assert (forall ((n nat) (m nat)) (= (minus (s n) (s m)) (minus n m)) ))
(declare-fun less (par (a) (a a) Bool))
(assert (forall ((x nat)) (not (less nat x zero))))
(assert (forall ((x nat)) (less nat zero (s x))))
(assert (forall ((x nat) (y nat)) (= (less nat (s x) (s y)) (less nat x y))))
(declare-fun leq (par (a) (a a) Bool))
(assert (par (a) (forall ((x a) (y a)) (= (leq a x y) (or (= x y) (less a x y))))))
(declare-fun min (nat nat) nat)
(assert (forall ((x nat) (y nat)) (= (min x y) (ite (leq nat x y) x y))))
(declare-fun max (par (a) (a a) a))
(assert (par (a) (forall ((x a) (y a)) (= (max a x y) (ite (leq a x y) y x)))))
(declare-fun size (par (a) ((tree a)) nat))
(assert (par (a) (= (size a (Leaf a)) zero)))
(assert (par (a) (forall ((l (tree a)) (x a) (r (tree a))) (= (size a (Node a l x r)) (s (plus (size a l) (size a r)))))))
(declare-fun h (par (a) ((tree a)) nat))
(assert (par (a) (= (h a (Leaf a)) zero)))
(assert (par (a) (forall ((l (tree a)) (x a) (r (tree a))) (= (h a (Node a l x r)) (s (max nat (h a l) (h a r)))))))
(declare-fun mh (par (a) ((tree a)) nat))
(assert (par (a) (= (mh a (Leaf a)) zero)))
(assert (par (a) (forall ((l (tree a)) (x a) (r (tree a))) (= (mh a (Node a l x r)) (s (min (mh a l) (mh a r)))))))
(declare-fun acomplete (par (a) ((tree a)) Bool))
(assert (par (a) (forall ((t (tree a))) (= (acomplete a t) (leq nat (minus (h a t) (mh a t)) (s zero))))))

; acomplete(s) & |s| <= |t| -> h(s) <= h(t)
(assert-not (par (a) (forall ((s (tree a)) (t (tree a))) (=> (and (acomplete a s) (leq nat (size a s) (size a t))) (leq nat (h a s) (h a t))))))
